100
4 0
11 0
12 1
30 3
37 1
34 4
20 3
0 4
42 2
5 1
34 3
9 3
39 2
18 3
2 4
5 0
9 4
39 4
1 4
25 3
39 0
22 0
31 3
4 4
12 2
32 3
6 2
2 3
34 0
41 4
13 0
6 0
42 4
0 2
2 2
29 4
27 4
3 3
18 1
36 4
1 2
13 1
10 1
23 4
20 0
39 1
33 4
19 4
21 4
21 1
43 0
3 0
25 0
6 4
10 4
5 3
42 3
19 0
23 2
0 1
38 3
41 3
38 4
13 4
18 0
36 0
20 4
31 0
15 3
32 0
12 0
7 4
40 0
16 4
24 0
42 0
30 4
28 0
43 1
39 3
7 1
24 1
23 0
25 1
2 0
27 0
1 1
43 4
22 2
43 3
14 4
15 0
24 4
29 0
27 3
40 3
10 0
14 0
15 4
29 1

